job_count = 24 ;
duration = [|16, 10, 3|23, 14, 5|5, 11, 9|16, 15, 4|3, 19, 1|18, 5, 5|5, 14, 4|4, 4, 7|27, 8, 8|19, 2, 5|20, 3, 8|23, 19, 4|5, 7, 5|22, 9, 4|27, 16, 6|28, 6, 2|16, 16, 7|4, 11, 8|28, 15, 7|17, 7, 8|24, 18, 4|28, 9, 8|20, 8, 1|8, 18, 4|] ;
machine_count = 3 ;
cost = [|10, 27, 57|12, 37, 49|13, 24, 48|16, 30, 52|14, 20, 31|16, 32, 30|16, 29, 38|11, 33, 56|11, 35, 52|15, 38, 48|17, 24, 34|12, 21, 57|11, 26, 41|17, 22, 50|10, 26, 45|18, 36, 43|17, 26, 50|15, 23, 35|10, 36, 37|10, 38, 54|13, 22, 35|16, 39, 39|18, 37, 43|17, 20, 31|] ;
deadline = [53, 53, 53, 53, 53, 53, 53, 53, 53, 53, 53, 53, 53, 53, 53, 53, 53, 53, 53, 53, 53, 53, 53, 53] ;
release = [0, 0, 0, 0, 0, 0, 0, 0, 0, 0, 0, 0, 0, 0, 0, 0, 0, 0, 0, 0, 0, 0, 0, 0] ;
resource = [|2, 2, 2|3, 3, 3|4, 4, 4|8, 8, 8|4, 4, 4|6, 6, 6|2, 2, 2|1, 1, 1|8, 8, 8|1, 1, 1|8, 8, 8|9, 9, 9|8, 8, 8|2, 2, 2|1, 1, 1|1, 1, 1|1, 1, 1|4, 4, 4|6, 6, 6|5, 5, 5|4, 4, 4|2, 2, 2|9, 9, 9|4, 4, 4|] ;
capacities = [10, 10, 10] ;
